<number of tasks>
50

<cycle time>
1000

<order strength>
0.598


<task times>
1 41
2 147
3 221
4 192
5 281
6 223
7 99
8 70
9 25
10 75
11 384
12 77
13 35
14 127
15 97
16 201
17 107
18 100
19 182
20 221
21 22
22 97
23 47
24 234
25 175
26 156
27 180
28 134
29 223
30 26
31 155
32 288
33 75
34 21
35 119
36 80
37 116
38 22
39 122
40 207
41 190
42 48
43 77
44 176
45 233
46 189
47 80
48 235
49 116
50 170

<precedence relations>
1,5
2,6
2,7
2,8
3,6
3,7
3,8
4,6
4,7
4,8
5,10
6,9
6,10
6,11
6,12
7,10
7,11
7,12
8,10
8,11
8,12
9,13
10,14
10,15
10,16
10,17
10,18
10,19
11,16
11,17
11,18
11,19
12,16
12,17
12,18
12,19
13,23
14,20
15,21
16,22
16,23
16,28
17,23
17,28
17,34
18,23
18,28
18,34
19,23
19,28
20,24
21,28
22,26
23,25
23,27
23,29
24,31
25,33
26,34
27,30
28,46
28,50
29,32
29,39
29,42
30,35
31,37
32,38
33,36
34,39
35,42
36,40
37,41
38,43
39,44
40,45
41,46
42,47
42,49
43,46
43,47
44,46
44,47
45,48
46,48
46,49
47,50

<end>
